# 2.7.7.24_group0_PF00483_30-85~2.7.7.27_group0_PF00483_30-85.sdpA
# All alignment positions within 5\AA of a ligand/cat site passing the sdpA filter.  Column indices start with 0.
22
109
139
228
258
